% long01;
% START_DATE: 2010-01-01;
% END_DATE: 2010-01-28;
num_days = 28;
num_shifts = 6;
shift_types = {E, L, D, N, DH, ZZ};

shift_types_array = [E, L, D, N, DH, ZZ];
num_employees = 49;
acceptable_shifts = [{E, L, D, N, DH, ZZ},{E, L, D, N, DH, ZZ},{E, L, D, N, DH, ZZ},{E, L, D, N, DH, ZZ},{E, L, D, N, DH, ZZ},{E, L, D, N, DH, ZZ},{E, L, D, N, ZZ},{E, L, D, N, ZZ},{E, L, D, N, ZZ},{E, L, D, N, ZZ},{E, L, D, N, ZZ},{E, L, D, N, ZZ},{E, L, D, N, ZZ},{E, L, D, N, ZZ},{E, L, D, N, ZZ},{E, L, D, N, ZZ},{E, L, D, N, ZZ},{E, L, D, N, ZZ},{E, L, D, N, ZZ},{E, L, D, N, ZZ},{E, L, D, N, ZZ},{E, L, D, N, ZZ},{E, L, D, N, ZZ},{E, L, D, N, ZZ},{E, L, D, N, ZZ},{E, L, D, N, ZZ},{E, L, D, N, ZZ},{E, L, D, N, ZZ},{E, L, D, N, ZZ},{E, L, D, N, ZZ},{E, L, D, N, ZZ},{E, L, D, N, ZZ},{E, L, D, N, ZZ},{E, L, D, N, ZZ},{E, L, D, N, ZZ},{E, L, D, N, ZZ},{E, L, D, N, ZZ},{E, L, D, N, ZZ},{E, L, D, N, ZZ},{E, L, D, N, ZZ},{E, L, D, N, ZZ},{E, L, D, N, ZZ},{E, L, D, N, ZZ},{E, L, D, N, ZZ},{E, L, D, N, ZZ},{E, L, D, N, ZZ},{E, L, D, N, ZZ},{E, L, D, N, ZZ},{E, L, D, N, ZZ}];

cover_requirements = [| 8, 8, 5, 6, 2
| 6, 6, 3, 4, 1
| 6, 6, 3, 4, 1
| 8, 8, 5, 6, 2
| 8, 8, 5, 6, 2
| 8, 8, 5, 6, 2
| 8, 8, 5, 6, 2
| 8, 8, 5, 6, 2
| 6, 6, 3, 4, 1
| 6, 6, 3, 4, 1
| 8, 8, 5, 6, 2
| 8, 8, 5, 6, 2
| 8, 8, 5, 6, 2
| 8, 8, 5, 6, 2
| 8, 8, 5, 6, 2
| 6, 6, 3, 4, 1
| 6, 6, 3, 4, 1
| 8, 8, 5, 6, 2
| 8, 8, 5, 6, 2
| 8, 8, 5, 6, 2
| 8, 8, 5, 6, 2
| 8, 8, 5, 6, 2
| 6, 6, 3, 4, 1
| 6, 6, 3, 4, 1
| 8, 8, 5, 6, 2
| 8, 8, 5, 6, 2
| 8, 8, 5, 6, 2
| 8, 8, 5, 6, 2
|]; 
